15
2 0 5
3 0 2
3 1 2
4 0 4
4 2 5
4 3 2
5 2 2
5 4 1
6 2 3
6 3 1
7 0 1
7 3 3
7 4 2
7 5 5
8 1 2
8 4 6
8 7 4
9 0 1
9 5 1
9 8 5
10 1 6
10 2 2
10 3 1
10 6 2
10 9 1
11 1 5
11 3 5
11 7 1
11 8 4
11 9 4
11 10 6
12 1 4
12 3 3
12 5 1
12 6 4
12 10 4
12 11 1
13 1 2
13 2 6
13 3 5
13 7 4
13 11 1
13 12 6
14 1 5
14 2 1
14 4 1
14 10 6
14 13 2
